<number of tasks>
50

<cycle time>
1000

<order strength>
0.2


<task times>
1 159
2 199
3 38
4 199
5 85
6 246
7 162
8 94
9 206
10 70
11 265
12 213
13 194
14 135
15 158
16 68
17 229
18 109
19 34
20 152
21 148
22 265
23 85
24 129
25 113
26 99
27 98
28 142
29 109
30 189
31 205
32 296
33 75
34 156
35 131
36 242
37 179
38 150
39 189
40 47
41 61
42 248
43 38
44 97
45 221
46 271
47 106
48 174
49 161
50 50

<precedence relations>
2,7
2,8
2,10
3,10
4,6
4,11
4,27
5,9
5,10
5,13
5,41
6,15
7,14
7,16
7,17
8,12
8,13
12,41
13,20
13,21
14,22
14,25
14,32
15,28
16,19
16,23
17,18
17,24
18,26
18,28
18,30
20,26
21,27
21,47
21,49
22,29
24,39
25,29
26,34
28,31
29,35
29,49
30,32
30,33
30,36
30,37
31,42
32,41
32,44
33,38
33,40
33,43
34,43
35,39
38,47
40,47
40,48
40,49
41,50
42,45
42,46

<end>
